benchmarks_vrp/CMT1/fixed_c/CMT1_2.vrp
NAME: CMT1_2
TYPE: CVRP
COMMENT: 524.61 - Cluster Nr.2
DIMENSION: 6
CAPACITY: 160
EDGE_WEIGHT_TYPE: EUC_2D
NODE_COORD_TYPE: TWOD_COORDS
NODE_COORD_SECTION: 
1 8 52
4 21 47
6 30 40
2 12 42
3 17 33
5 7 38
DEPOT_SECTION: 
6
-1
DEMAND_SECTION: 
2 21
5 28
4 15
1 10
6 0
3 41
EOF
