benchmarks_vrp/CMT1/fixed_c/CMT1_2.tour
NAME: CMT1_2 solution
TYPE: TOUR
TOUR_SECTION:
6 3 5 2 1 4 -1
-1
EOF